p cnf 14 25
14 13 -10 0
14 -12 9 0
14 11 1 0
14 -10 5 0
-14 10 4 0
-14 9 -7 0
-14 -9 -6 0
14 -3 -2 0
-13 -11 -8 0
13 -11 5 0
13 -9 -8 0
-13 -9 -2 0
-13 -8 6 0
12 6 4 0
-12 4 -2 0
-11 9 2 0
11 8 -3 0
-11 7 5 0
-11 7 -3 0
-10 -8 3 0
-10 -6 4 0
9 -8 -5 0
-9 5 1 0
9 4 2 0
7 4 -3 0
